09-routing/solutions/XSH-n20-k4-37.opt.sol
Route #1: 6 8 14 9 13 11
Route #2: 2 4 5 7 18
Route #3: 3 20 12 19 1
Route #4: 16 10 15 17
Cost 650
